5 5
0 13 3 94 4 32 1 5 2 12
3 59 0 41 1 37 2 68 4 48
3 43 4 93 2 41 0 56 1 69
3 11 2 94 4 9 1 28 0 22
1 75 4 85 0 6 2 26 3 16
-1
0 1 3 5
0 1 3 5
0 2 5
0 3 5
0 2 3 5
-2
17 161 162
90 205 257
189 451
160 198
227 229 272

330 8
0 6 13 22 19
20 7 18 14 3
16 12 8 23 4
15 10 5 1 24
11 17 21 2 9
